HFSDDW
20	6	2
0	4	1	6
0	70	1	80
0	23	1	5
0	41	1	63
0	8	1	51
0	15	1	88
0	54	1	38
0	70	1	92
0	6	1	64
0	28	1	65
0	60	1	8
0	7	1	16
0	75	1	61
0	74	1	80
0	57	1	15
0	55	1	93
0	75	1	86
0	30	1	80
0	24	1	37
0	79	1	82
LBCmax: 377
RELDUE
-1	226	3	6
-1	113	1	9
-1	146	9	2
-1	152	2	7
-1	270	1	9
-1	225	7	7
-1	275	8	5
-1	255	2	4
-1	71	8	7
-1	339	5	3
-1	215	9	2
-1	315	7	7
-1	325	7	8
-1	401	2	8
-1	413	8	4
-1	400	8	7
-1	412	3	2
-1	242	5	8
-1	58	2	4
-1	270	4	4
DDW
217	235
102	124
139	153
149	155
265	275
207	243
250	300
245	265
65	77
319	359
211	219
306	324
292	358
369	433
384	442
392	408
371	453
235	249
56	60
265	275
